50

98 44 295
96 32 345
96 37 297
87 19 351
87 16 285
87 41 270
86 28 315
85 4 335
83 28 309
83 41 310
82 18 248
81 11 264
77 12 341
74 14 328
67 32 224
65 20 253
64 31 316
64 9 263
63 30 327
60 27 300
57 27 214
57 18 292
56 5 275
55 7 335
50 11 350
49 19 252
46 2 263
43 10 260
43 17 224
42 11 352
37 3 329
33 15 303
31 16 277
31 15 359
27 14 127
27 6 347
26 3 90
25 10 144
23 9 338
23 12 196
19 9 97
18 4 355
15 3 167
13 2 343
10 5 303
9 1 109
6 3 213
3 1 73
2 1 157
1 1 301
